$BASIS GBASIS=DZV $END
$CONTRL SCFTYP=RHFRUNTYP=optimize ICHARG=0 MULT=1 DFTTYP=PBE0 $END
$STATPT OPTTOL=1.0e-5 $END
$DATA
Input file generated by XtI.
C1

