#P B3LYP/Def2SVP EmpiricalDispersion=GD3BJ Opt  

water

0   1
O      0.125879    2.825918   -0.010057
H     -0.311516    3.515637   -0.531527
H     -0.224688    2.951162    0.884584

