#P B3LYP/Def2TZVP EmpiricalDispersion=GD3BJ

water

0   1
O      0.0000000000    0.1202340000   -0.0000000000
H      0.7570250000   -0.4809360000    0.0000000000
H     -0.7570250000   -0.4809360000   -0.0000000000

